data;
param T := 12750;
param N := 16;
param W := 
[0] 7671
[1] 9243
[2] 1983
[3] 6471
[4] 7619
[5] 2253
[6] 47
[7] 1868
[8] 6916
[9] 5390
[10] 1722
[11] 4585
[12] 2202
[13] 8539
[14] 7100
[15] 1873
;
end;